Set parameter TokenServer to value "opt-license.discovery.wisc.edu"
Set parameter TimeLimit to value 600
Gurobi Optimizer version 9.5.1 build v9.5.1rc2 (linux64)
Thread count: 40 physical cores, 80 logical processors, using up to 32 threads
Optimize a model with 1681 rows, 1600 columns and 6360 nonzeros
Model fingerprint: 0xb4bd1dc0
Variable types: 0 continuous, 1600 integer (1600 binary)
Coefficient statistics:
  Matrix range     [1e+00, 7e+02]
  Objective range  [1e+00, 8e+00]
  Bounds range     [1e+00, 1e+00]
  RHS range        [1e+00, 8e+00]
Presolve removed 161 rows and 0 columns
Presolve time: 0.04s
Presolved: 1520 rows, 1600 columns, 6781 nonzeros
Variable types: 0 continuous, 1600 integer (1600 binary)
Found heuristic solution: objective 108.8144199

Root relaxation: objective 3.474955e+01, 420 iterations, 0.02 seconds (0.02 work units)

    Nodes    |    Current Node    |     Objective Bounds      |     Work
 Expl Unexpl |  Obj  Depth IntInf | Incumbent    BestBd   Gap | It/Node Time

     0     0   34.74955    0  132  108.81442   34.74955  68.1%     -    0s
H    0     0                      56.5238626   34.74955  38.5%     -    0s
H    0     0                      49.5339086   34.74955  29.8%     -    0s
     0     0   35.15058    0  152   49.53391   35.15058  29.0%     -    0s
H    0     0                      48.1196950   35.15058  27.0%     -    0s
     0     0   35.53657    0  150   48.11969   35.53657  26.1%     -    0s
     0     0   35.83088    0  162   48.11969   35.83088  25.5%     -    0s
H    0     0                      43.7831219   35.83088  18.2%     -    0s
     0     0   35.86922    0  162   43.78312   35.86922  18.1%     -    0s
     0     0   36.03039    0  154   43.78312   36.03039  17.7%     -    0s
     0     0   36.03988    0  154   43.78312   36.03988  17.7%     -    0s
     0     0   36.04010    0  156   43.78312   36.04010  17.7%     -    0s
     0     0   36.13461    0  147   43.78312   36.13461  17.5%     -    0s
     0     0   36.14978    0  144   43.78312   36.14978  17.4%     -    0s
     0     0   36.15592    0  144   43.78312   36.15592  17.4%     -    0s
     0     0   36.15610    0  149   43.78312   36.15610  17.4%     -    0s
     0     0   36.19687    0  154   43.78312   36.19687  17.3%     -    0s
     0     0   36.22063    0  162   43.78312   36.22063  17.3%     -    0s
     0     0   36.22291    0  154   43.78312   36.22291  17.3%     -    0s
     0     0   36.22323    0  149   43.78312   36.22323  17.3%     -    0s
     0     0   36.22323    0  149   43.78312   36.22323  17.3%     -    0s
     0     2   36.22323    0  149   43.78312   36.22323  17.3%     -    0s
H   34    64                      43.1973355   36.36287  15.8%  56.5    1s
H   51    64                      42.9388269   36.37885  15.3%  61.8    1s
H 1252  1193                      42.3623357   36.37885  14.1%  34.6    1s
H 3076  2301                      41.9481221   36.39388  13.2%  31.3    2s
H 3078  2188                      40.9546948   36.39388  11.1%  31.3    3s
H 3084  2082                      39.7924172   36.57470  8.09%  31.2    3s
H 3093  1984                      39.3782036   36.71555  6.76%  31.6    4s
  3105  1992   38.29562   20  175   39.37820   36.95872  6.14%  31.5    5s
H 3147  1918                      38.9639900   37.33348  4.18%  31.0    6s
H 3176  1840                      38.7924172   37.42673  3.52%  31.7    8s
  3978  1890   38.38495   47  139   38.79242   37.70706  2.80%  38.8   10s

Cutting planes:
  MIR: 81
  StrongCG: 50
  Flow cover: 43
  GUB cover: 10
  Zero half: 13

Explored 6453 nodes (289783 simplex iterations) in 11.07 seconds (5.41 work units)
Thread count was 32 (of 80 available processors)

Solution count 10: 38.7924 38.964 39.3782 ... 43.7831

Optimal solution found (tolerance 1.00e-04)
Best objective 3.879241716360e+01, best bound 3.879241716360e+01, gap 0.0000%
